62      4       
15      18      18      17      
0       0       0       0       0       3       2       3       4       
4       0       3       0       0       3       5       6       13      
3       0       3       0       0       3       7       12      14      
5       0       0       10      0       3       26      40      47      
5       0       0       0       2       3       10      23      28      
6       3       0       0       0       3       9       11      39      
5       0       0       0       2       3       8       25      55      
10      0       0       0       5       3       30      33      59      
2       0       0       0       5       3       16      20      21      
8       0       7       0       0       3       35      41      45      
6       0       0       0       9       3       18      37      40      
4       10      0       0       0       2       15      29      
6       7       0       0       0       3       22      25      57      
2       0       0       0       3       3       21      48      50      
1       0       0       2       0       3       16      17      30      
8       0       0       8       0       3       19      36      49      
9       0       0       5       0       3       19      27      39      
9       0       0       3       0       3       25      32      57      
3       0       0       4       0       3       24      32      54      
6       0       0       9       0       3       26      33      38      
2       3       0       0       0       3       26      40      49      
5       0       0       0       4       3       30      34      47      
1       0       1       0       0       3       29      31      44      
1       0       2       0       0       3       31      43      46      
8       1       0       0       0       3       28      29      38      
4       0       0       0       9       3       37      42      55      
10      0       1       0       0       3       28      34      36      
3       0       0       4       0       3       33      50      61      
6       0       7       0       0       2       36      51      
8       0       0       1       0       3       32      38      41      
5       0       0       6       0       2       35      60      
9       0       4       0       0       1       53      
5       0       9       0       0       1       48      
8       5       0       0       0       2       37      43      
6       0       0       5       0       1       52      
4       10      0       0       0       1       53      
4       0       0       0       8       1       58      
10      0       9       0       0       3       42      48      53      
9       0       0       0       6       2       41      52      
9       4       0       0       0       3       42      46      54      
4       0       0       9       0       1       43      
9       0       0       0       4       1       56      
1       0       0       0       10      1       50      
1       9       0       0       0       1       45      
4       0       0       0       6       2       46      47      
4       0       0       8       0       2       52      58      
9       0       0       2       0       2       49      56      
6       0       10      0       0       1       51      
1       0       8       0       0       2       54      60      
2       4       0       0       0       1       51      
2       0       0       9       0       1       56      
7       0       0       5       0       1       55      
2       0       0       0       4       1       61      
5       3       0       0       0       2       58      59      
3       5       0       0       0       1       57      
6       0       0       0       8       1       60      
7       0       0       0       10      1       59      
1       0       3       0       0       1       61      
5       0       0       0       8       1       62      
3       2       0       0       0       1       62      
7       2       0       0       0       1       62      
0       0       0       0       0       0       